409600
21
73
44
69
1
95
55
19
86
94
90
40
97
9
88
2
22
32
15
12
100
49
74
66
64
76
3
37
84
67
23 4
5 7
87 11
85 24
79 50
33 71
13 80
59 34
70 60
52 57
10 29
38 99
39 62
58 31
54 35
43 82
63 93
42 91
68 25
36 53
65 77
30 6
47 41
98 8
92 20
61 14
28 72
17 75
16 89
56 96
27 83
46 48
81 51
26 45
18 78
